p cnf 55 197
-2 -1 0
-2 1 0
-5 -3 0
-5 4 0
3 -4 5 0
6 5 0
6 -1 0
-5 1 -6 0
-7 -8 -9 0
7 8 -9 0
-7 8 9 0
7 -8 9 0
10 6 0
10 9 0
-6 -9 -10 0
11 -2 0
11 -10 0
2 10 -11 0
-12 -6 -13 0
12 6 -13 0
-12 6 13 0
12 -6 13 0
14 11 0
14 -13 0
-11 13 -14 0
16 8 0
16 -15 0
-8 15 -16 0
11 -3 -17 0
-11 3 -17 0
11 3 17 0
-11 -3 17 0
-18 -16 0
-18 -17 0
16 17 18 0
19 14 0
19 -18 0
-14 18 -19 0
20 -17 0
20 -2 0
17 2 -20 0
21 6 0
21 20 0
-6 -20 -21 0
-23 -21 0
-23 -22 0
21 22 23 0
6 -3 -24 0
-6 3 -24 0
6 3 24 0
-6 -3 24 0
25 23 0
25 -24 0
-23 24 -25 0
-26 25 0
-26 -20 0
-25 20 26 0
3 27 -28 0
-3 -27 -28 0
3 -27 28 0
-3 27 28 0
17 -28 -29 0
-17 28 -29 0
17 28 29 0
-17 -28 29 0
-8 7 -30 0
8 -7 -30 0
-8 -7 30 0
8 7 30 0
31 -30 0
31 -30 0
30 -31 0
-29 31 -32 0
29 -31 -32 0
-29 -31 32 0
29 31 32 0
-26 32 -33 0
26 -32 -33 0
-26 -32 33 0
26 32 33 0
34 24 0
34 -23 0
-24 23 -34 0
-35 -33 0
-35 -34 0
33 34 35 0
19 35 -36 0
-19 -35 -36 0
19 -35 36 0
-19 35 36 0
24 -7 -37 0
-24 7 -37 0
24 7 37 0
-24 -7 37 0
17 -37 -38 0
-17 37 -38 0
17 37 38 0
-17 -37 38 0
39 4 0
39 23 0
-4 -23 -39 0
40 -9 0
40 -39 0
9 39 -40 0
41 -38 0
41 40 0
38 -40 -41 0
-42 -23 0
-42 -15 0
23 15 42 0
-43 12 0
-43 6 0
-12 -6 43 0
-44 42 0
-44 43 0
-42 -43 44 0
-45 41 0
-45 44 0
-41 -44 45 0
-46 36 0
-46 -45 0
-36 45 46 0
25 47 -48 0
-25 -47 -48 0
25 -47 48 0
-25 47 48 0
-5 20 -49 0
5 -20 -49 0
-5 -20 49 0
5 20 49 0
-50 -48 0
-50 49 0
48 -49 50 0
-39 -4 -51 0
39 4 -51 0
-39 4 51 0
39 -4 51 0
52 -16 0
52 -13 0
16 13 -52 0
51 -52 -53 0
-51 52 -53 0
51 52 53 0
-51 -52 53 0
54 50 0
54 53 0
-50 -53 -54 0
46 54 -55 0
-46 -54 -55 0
46 -54 55 0
-46 54 55 0
49 27 46 -10 -9 45 0
-31 52 -12 -15 -32 0
-24 -15 0
12 -32 -5 0
42 -29 -46 -4 0
-36 -38 -31 0
-52 6 53 0
12 -15 -2 50 -53 0
-20 -47 53 -51 0
-26 8 22 -40 -4 -33 0
1 27 0
29 -10 -24 0
-50 -26 -48 0
-53 -20 55 -54 -17 0
-24 3 -48 -53 42 0
-16 9 0
-52 -22 8 19 4 0
39 43 -13 -55 -48 0
-34 -41 6 -16 35 0
-2 -30 -46 -54 -5 0
-33 11 40 -51 0
-35 -17 0
-23 37 -50 40 0
4 34 52 10 0
-18 -48 -19 45 -43 25 0
55 20 21 44 11 0
-38 -31 -44 -32 41 0
-24 1 -25 18 31 0
17 13 45 -30 44 -50 0
-16 -47 -42 -17 48 0
-7 -11 -19 38 0
-38 -43 0
-25 -53 46 -6 30 0
46 22 0
-44 52 0
54 -35 -36 29 0
13 14 -4 -10 0
-13 -38 0
45 12 26 6 -25 37 0
51 -46 0
-25 -42 10 0
5 40 42 -36 3 18 0
29 14 -34 -2 0
45 -24 -28 37 9 0
-50 -36 38 -28 0
55 0
